NAME : random45.527.tour
COMMENT : Length = 527
COMMENT : Found by LKH [Keld Helsgaun] Mon Dec 30 21:53:48 2024
TYPE : TOUR
DIMENSION : 45
TOUR_SECTION
1
7
15
37
25
14
16
24
18
21
8
10
31
11
30
2
20
35
40
4
26
28
34
13
12
41
5
23
45
36
32
38
19
3
17
33
22
42
6
27
44
39
43
29
9
-1
EOF
